Ti  O Ag                                
   1.00000000000000     
    20.5258998870999996    0.0000000000000000    0.0000000000000000
     0.0000000000000000   11.4617996216000009    0.0000000000000000
     0.0000000000000000    0.0000000000000000   16.0000000000000000
   Ti   O    Ag
    48    96     8
Selective dynamics
Direct
  0.4302010596304982  0.0000000000000000  0.0494715014187506   F   F   F
  0.0018243707848526  0.9989253276071679  0.2800830110671271   T   T   T
  0.1802431928319592  0.1666905904112568  0.0493034363937497   F   F   F
  0.2506971409951788  0.1658439725795944  0.2748919049142202   T   T   T
  0.3201833999945762  0.1666982635954781  0.1005896538375026   F   F   F
  0.3874660030395631  0.1655493452973644  0.3221198157269143   T   T   T
  0.0701833733100017  0.0000000000000000  0.1005902299749977   F   F   F
  0.1392904233115502  0.9979327073593467  0.3229850149731419   T   T   T
  0.9302010894196968  0.0000000000000000  0.0494715014187506   F   F   F
  0.5013677994491701  0.9989435223163312  0.2809501621159924   T   T   T
  0.6802432077131542  0.1666905904112568  0.0493034363937497   F   F   F
  0.7517397437003339  0.1658942928032303  0.2809067990913476   T   T   T
  0.8201834000165036  0.1666982635954781  0.1005896538375026   F   F   F
  0.8876989632574634  0.1655823389490507  0.3222193016443811   T   T   T
  0.5701833658779236  0.0000000000000000  0.1005902299749977   F   F   F
  0.6374138276496524  0.9992110190800076  0.3222938192921774   T   T   T
  0.4302431779349263  0.3333094096061942  0.0493034363937497   F   F   F
  0.0014314245883114  0.3323256835321331  0.2798906916078181   T   T   T
  0.1802010745275311  0.5000000000174509  0.0494715014187506   F   F   F
  0.2511507577459824  0.4997217295906609  0.2770928256009171   T   T   T
  0.3201833658669599  0.5000000000174509  0.1005902299749977   F   F   F
  0.3869034823128530  0.4986109902885687  0.3246162385454099   T   T   T
  0.0701834074376109  0.3333017364219728  0.1005896538375026   F   F   F
  0.1388100458395485  0.3334853877384916  0.3229399320200130   T   T   T
  0.9302432077241178  0.3333094096061942  0.0493034363937497   F   F   F
  0.5013099969469650  0.3324974834330021  0.2811222485881260   T   T   T
  0.6802010894087331  0.5000000000174509  0.0494715014187506   F   F   F
  0.7514450019956058  0.4992117508535898  0.2810503488700888   T   T   T
  0.8201833658888873  0.5000000000174509  0.1005902299749977   F   F   F
  0.8875477192177854  0.4990109765923449  0.3221057040892035   T   T   T
  0.5701834000055399  0.3333017364219728  0.1005896538375026   F   F   F
  0.6373955141854921  0.3323343736037501  0.3222612564555121   T   T   T
  0.4302431779349263  0.6666906201797005  0.0493034363937497   F   F   F
  0.0012626392607942  0.6660260510770186  0.2803737010395722   T   T   T
  0.1802431928319592  0.8333093797853977  0.0493034363937497   F   F   F
  0.2512261772966937  0.8312739893696772  0.2774105961907338   T   T   T
  0.3201833999945762  0.8333017066011763  0.1005896538375026   F   F   F
  0.3873660616939745  0.8324612315845528  0.3240130576791316   T   T   T
  0.0701834074376109  0.6666982933639218  0.1005896538375026   F   F   F
  0.1371173738508489  0.6658749883956148  0.3215953599835970   T   T   T
  0.9302432077241178  0.6666906201797005  0.0493034363937497   F   F   F
  0.5011340804263611  0.6652375451386590  0.2811314854548854   T   T   T
  0.6802432077131542  0.8333093797853977  0.0493034363937497   F   F   F
  0.7515228269952985  0.8325099709880561  0.2811473417997306   T   T   T
  0.8201834000165036  0.8333017066011763  0.1005896538375026   F   F   F
  0.8874731043506614  0.8326052751280244  0.3222022690022470   T   T   T
  0.5701834000055399  0.6666982933639218  0.1005896538375026   F   F   F
  0.6374150991062280  0.6658359336292179  0.3223454312568066   T   T   T
  0.3393693447943704  0.0000000000000000  0.0951207053875009   F   F   F
  0.4115844706790242  0.9992511386952572  0.3367808000182606   T   T   T
  0.0894187871564895  0.1666665170799178  0.0949855007375007   F   F   F
  0.1608740786232943  0.1657995968525583  0.3252606592792944   T   T   T
  0.2332074818268168  0.1668295230878485  0.1514276735437505   F   F   F
  0.3059064333799810  0.1657868920138910  0.3736809362223852   T   T   T
  0.4831524113460475  0.0000000000000000  0.1515056568624971   F   F   F
  0.0576104870040552  0.9991246293723393  0.3760968126199558   T   T   T
  0.1621634285078031  0.0000000000000000  0.0555419365124976   F   F   F
  0.2326036809910974  0.9982901915616011  0.2809198031105566   T   T   T
  0.4121440446719049  0.1666764288567535  0.0555218413500000   F   F   F
  0.4811343450767254  0.1657261740832396  0.2823969705939007   T   T   T
  0.2695818583611853  0.1666989811703985  0.0000000314749968   F   F   F
  0.3420386747255293  0.1660858698625844  0.2241420597089743   T   T   T
  0.0195179377081445  0.0000000000000000  0.0000745188124966   F   F   F
  0.0909833987557391  0.9953873245036249  0.2254885331762466   T   T   T
  0.8393693150003045  0.0000000000000000  0.0951207053875009   F   F   F
  0.9124513425874312  0.9991631484820118  0.3356873496066086   T   T   T
  0.5894187722704203  0.1666665170799178  0.0949855007375007   F   F   F
  0.6620962654357285  0.1658569513042636  0.3356021757195791   T   T   T
  0.7332074967080189  0.1668295230878485  0.1514276735437505   F   F   F
  0.8076107606076164  0.1655848472336743  0.3746172231901213   T   T   T
  0.9831524411839609  0.0000000000000000  0.1515056568624971   F   F   F
  0.5569197717334760  0.9987995816466508  0.3745173328616787   T   T   T
  0.6621634582969946  0.0000000000000000  0.0555419365124976   F   F   F
  0.7317904233575590  0.9992013352808371  0.2819746037186803   T   T   T
  0.9121440744610965  0.1666764288567535  0.0555218413500000   F   F   F
  0.9824974821874122  0.1656987268385492  0.2822236053842246   T   T   T
  0.7695818285671194  0.1666989811703985  0.0000000314749968   F   F   F
  0.8416846172749146  0.1661173862033394  0.2246635575755676   T   T   T
  0.5195179172193960  0.0000000000000000  0.0000745188124966   F   F   F
  0.5912124334259943  0.9992688808766985  0.2248452318550918   T   T   T
  0.3394188020754427  0.3333334829375332  0.0949855007375007   F   F   F
  0.4114867321375684  0.3317774337163755  0.3369030759751297   T   T   T
  0.0893693298754172  0.5000000000174509  0.0951207053875009   F   F   F
  0.1627206718267260  0.5008492123401211  0.3348197810187798   T   T   T
  0.2331524262918023  0.5000000000174509  0.1515056568624971   F   F   F
  0.3053755816193515  0.4930718292021794  0.3774985675305160   T   T   T
  0.4832074668810691  0.3331704769296024  0.1514276735437505   F   F   F
  0.0570715539573996  0.3303071505021222  0.3759713258105393   T   T   T
  0.1621440446609412  0.3333235711606903  0.0555218413500000   F   F   F
  0.2318949562270873  0.3330613010391090  0.2802456067437333   T   T   T
  0.4121634285187596  0.5000000000174509  0.0555419365124976   F   F   F
  0.4801227466914000  0.4990461546481555  0.2830021832106340   T   T   T
  0.2695179470244184  0.5000000000174509  0.0000745188124966   F   F   F
  0.3413781960650439  0.5013423770744652  0.2264225359367060   T   T   T
  0.0195818490449042  0.3333010188470524  0.0000000314749968   F   F   F
  0.0908099420007034  0.3371320415001620  0.2252356166127782   T   T   T
  0.8394187722813768  0.3333334829375332  0.0949855007375007   F   F   F
  0.9123292039448501  0.3322161623120650  0.3352053700552702   T   T   T
  0.5893693149893480  0.5000000000174509  0.0951207053875009   F   F   F
  0.6620222719140116  0.4990879057970474  0.3356045344479455   T   T   T
  0.7331524411730044  0.5000000000174509  0.1515056568624971   F   F   F
  0.8074731289229575  0.4990395952986546  0.3746009422047507   T   T   T
  0.9832074967189826  0.3331704769296024  0.1514276735437505   F   F   F
  0.5569988341334806  0.3322945039794334  0.3746429970736216   T   T   T
  0.6621440744501399  0.3333235711606903  0.0555218413500000   F   F   F
  0.7317936106684328  0.3325340136521646  0.2820261358308969   T   T   T
  0.9121634583079583  0.5000000000174509  0.0555419365124976   F   F   F
  0.9823724304150403  0.4990764089013595  0.2828589594992650   T   T   T
  0.7695179172303597  0.5000000000174509  0.0000745188124966   F   F   F
  0.8415037190285588  0.4991660707177203  0.2246991090275614   T   T   T
  0.5195818285561558  0.3333010188470524  0.0000000314749968   F   F   F
  0.5910344058085641  0.3323918243009061  0.2250067044711486   T   T   T
  0.3394188020754427  0.6666665468483686  0.0949855007375007   F   F   F
  0.4108155735475165  0.6655891800932210  0.3381371234839037   T   T   T
  0.0894187871564895  0.8333334531167367  0.0949855007375007   F   F   F
  0.1628049798980911  0.8305733720046575  0.3341332910307457   T   T   T
  0.2332074818268168  0.8331704471088059  0.1514276735437505   F   F   F
  0.3059383475741555  0.8364133616482619  0.3779058774680308   T   T   T
  0.4832074668810691  0.6668295528562993  0.1514276735437505   F   F   F
  0.0576738784784823  0.6662691103574403  0.3746180953838163   T   T   T
  0.1621440446609412  0.6666764586252043  0.0555218413500000   F   F   F
  0.2334137536014751  0.6654174916736508  0.2824517036795129   T   T   T
  0.4121440446719049  0.8333235413398938  0.0555218413500000   F   F   F
  0.4803619741244489  0.8319798304749284  0.2829397253020502   T   T   T
  0.2695818583611853  0.8333009890262488  0.0000000314749968   F   F   F
  0.3413373133288715  0.8307524795819390  0.2263094204789553   T   T   T
  0.0195818490449042  0.6666990109388493  0.0000000314749968   F   F   F
  0.0915313417970935  0.6661201866450170  0.2242648798777793   T   T   T
  0.8394187722813768  0.6666665468483686  0.0949855007375007   F   F   F
  0.9122403591317862  0.6658231058280535  0.3355760060198705   T   T   T
  0.5894187722704203  0.8333334531167367  0.0949855007375007   F   F   F
  0.6620923539486512  0.8324539592849334  0.3361619656929733   T   T   T
  0.7332074967080189  0.8331704471088059  0.1514276735437505   F   F   F
  0.8073743196479839  0.8323452762794190  0.3747658303337928   T   T   T
  0.9832074967189826  0.6668295528562993  0.1514276735437505   F   F   F
  0.5569026195937852  0.6654480246836982  0.3744643674369144   T   T   T
  0.6621440744501399  0.6666764586252043  0.0555218413500000   F   F   F
  0.7316255477215066  0.6659261212487877  0.2819669045120392   T   T   T
  0.9121440744610965  0.8333235413398938  0.0555218413500000   F   F   F
  0.9820937459144119  0.8325979699052155  0.2826586330512981   T   T   T
  0.7695818285671194  0.8333009890262488  0.0000000314749968   F   F   F
  0.8414666167866827  0.8327372842521044  0.2247148374016419   T   T   T
  0.5195818285561558  0.6666990109388493  0.0000000314749968   F   F   F
  0.5909768128526096  0.6660440057987671  0.2251110795235647   T   T   T
  0.1998318214683223  0.2863163712821688  0.6258403387034619   T   T   T
  0.2070708147648759  0.0404576003796393  0.6304292969225713   T   T   T
  0.1102041618595777  0.2830895282766761  0.5006623939313144   T   T   T
  0.2357988734062886  0.4008578231881188  0.4765643785972031   T   T   T
  0.2336113369002391  0.1637911129222260  0.4857006483027675   T   T   T
  0.1172548862649450  0.0297579649112194  0.5035401178662937   T   T   T
  0.2430088741717569  0.9265692092801316  0.4808278340005927   T   T   T
  0.0842602285116598  0.1542138587141295  0.6456749701658779   T   T   T
 
  0.00000000E+00  0.00000000E+00  0.00000000E+00
  0.00000000E+00  0.00000000E+00  0.00000000E+00
  0.00000000E+00  0.00000000E+00  0.00000000E+00
  0.00000000E+00  0.00000000E+00  0.00000000E+00
  0.00000000E+00  0.00000000E+00  0.00000000E+00
  0.00000000E+00  0.00000000E+00  0.00000000E+00
  0.00000000E+00  0.00000000E+00  0.00000000E+00
  0.00000000E+00  0.00000000E+00  0.00000000E+00
  0.00000000E+00  0.00000000E+00  0.00000000E+00
  0.00000000E+00  0.00000000E+00  0.00000000E+00
  0.00000000E+00  0.00000000E+00  0.00000000E+00
  0.00000000E+00  0.00000000E+00  0.00000000E+00
  0.00000000E+00  0.00000000E+00  0.00000000E+00
  0.00000000E+00  0.00000000E+00  0.00000000E+00
  0.00000000E+00  0.00000000E+00  0.00000000E+00
  0.00000000E+00  0.00000000E+00  0.00000000E+00
  0.00000000E+00  0.00000000E+00  0.00000000E+00
  0.00000000E+00  0.00000000E+00  0.00000000E+00
  0.00000000E+00  0.00000000E+00  0.00000000E+00
  0.00000000E+00  0.00000000E+00  0.00000000E+00
  0.00000000E+00  0.00000000E+00  0.00000000E+00
  0.00000000E+00  0.00000000E+00  0.00000000E+00
  0.00000000E+00  0.00000000E+00  0.00000000E+00
  0.00000000E+00  0.00000000E+00  0.00000000E+00
  0.00000000E+00  0.00000000E+00  0.00000000E+00
  0.00000000E+00  0.00000000E+00  0.00000000E+00
  0.00000000E+00  0.00000000E+00  0.00000000E+00
  0.00000000E+00  0.00000000E+00  0.00000000E+00
  0.00000000E+00  0.00000000E+00  0.00000000E+00
  0.00000000E+00  0.00000000E+00  0.00000000E+00
  0.00000000E+00  0.00000000E+00  0.00000000E+00
  0.00000000E+00  0.00000000E+00  0.00000000E+00
  0.00000000E+00  0.00000000E+00  0.00000000E+00
  0.00000000E+00  0.00000000E+00  0.00000000E+00
  0.00000000E+00  0.00000000E+00  0.00000000E+00
  0.00000000E+00  0.00000000E+00  0.00000000E+00
  0.00000000E+00  0.00000000E+00  0.00000000E+00
  0.00000000E+00  0.00000000E+00  0.00000000E+00
  0.00000000E+00  0.00000000E+00  0.00000000E+00
  0.00000000E+00  0.00000000E+00  0.00000000E+00
  0.00000000E+00  0.00000000E+00  0.00000000E+00
  0.00000000E+00  0.00000000E+00  0.00000000E+00
  0.00000000E+00  0.00000000E+00  0.00000000E+00
  0.00000000E+00  0.00000000E+00  0.00000000E+00
  0.00000000E+00  0.00000000E+00  0.00000000E+00
  0.00000000E+00  0.00000000E+00  0.00000000E+00
  0.00000000E+00  0.00000000E+00  0.00000000E+00
  0.00000000E+00  0.00000000E+00  0.00000000E+00
  0.00000000E+00  0.00000000E+00  0.00000000E+00
  0.00000000E+00  0.00000000E+00  0.00000000E+00
  0.00000000E+00  0.00000000E+00  0.00000000E+00
  0.00000000E+00  0.00000000E+00  0.00000000E+00
  0.00000000E+00  0.00000000E+00  0.00000000E+00
  0.00000000E+00  0.00000000E+00  0.00000000E+00
  0.00000000E+00  0.00000000E+00  0.00000000E+00
  0.00000000E+00  0.00000000E+00  0.00000000E+00
  0.00000000E+00  0.00000000E+00  0.00000000E+00
  0.00000000E+00  0.00000000E+00  0.00000000E+00
  0.00000000E+00  0.00000000E+00  0.00000000E+00
  0.00000000E+00  0.00000000E+00  0.00000000E+00
  0.00000000E+00  0.00000000E+00  0.00000000E+00
  0.00000000E+00  0.00000000E+00  0.00000000E+00
  0.00000000E+00  0.00000000E+00  0.00000000E+00
  0.00000000E+00  0.00000000E+00  0.00000000E+00
  0.00000000E+00  0.00000000E+00  0.00000000E+00
  0.00000000E+00  0.00000000E+00  0.00000000E+00
  0.00000000E+00  0.00000000E+00  0.00000000E+00
  0.00000000E+00  0.00000000E+00  0.00000000E+00
  0.00000000E+00  0.00000000E+00  0.00000000E+00
  0.00000000E+00  0.00000000E+00  0.00000000E+00
  0.00000000E+00  0.00000000E+00  0.00000000E+00
  0.00000000E+00  0.00000000E+00  0.00000000E+00
  0.00000000E+00  0.00000000E+00  0.00000000E+00
  0.00000000E+00  0.00000000E+00  0.00000000E+00
  0.00000000E+00  0.00000000E+00  0.00000000E+00
  0.00000000E+00  0.00000000E+00  0.00000000E+00
  0.00000000E+00  0.00000000E+00  0.00000000E+00
  0.00000000E+00  0.00000000E+00  0.00000000E+00
  0.00000000E+00  0.00000000E+00  0.00000000E+00
  0.00000000E+00  0.00000000E+00  0.00000000E+00
  0.00000000E+00  0.00000000E+00  0.00000000E+00
  0.00000000E+00  0.00000000E+00  0.00000000E+00
  0.00000000E+00  0.00000000E+00  0.00000000E+00
  0.00000000E+00  0.00000000E+00  0.00000000E+00
  0.00000000E+00  0.00000000E+00  0.00000000E+00
  0.00000000E+00  0.00000000E+00  0.00000000E+00
  0.00000000E+00  0.00000000E+00  0.00000000E+00
  0.00000000E+00  0.00000000E+00  0.00000000E+00
  0.00000000E+00  0.00000000E+00  0.00000000E+00
  0.00000000E+00  0.00000000E+00  0.00000000E+00
  0.00000000E+00  0.00000000E+00  0.00000000E+00
  0.00000000E+00  0.00000000E+00  0.00000000E+00
  0.00000000E+00  0.00000000E+00  0.00000000E+00
  0.00000000E+00  0.00000000E+00  0.00000000E+00
  0.00000000E+00  0.00000000E+00  0.00000000E+00
  0.00000000E+00  0.00000000E+00  0.00000000E+00
  0.00000000E+00  0.00000000E+00  0.00000000E+00
  0.00000000E+00  0.00000000E+00  0.00000000E+00
  0.00000000E+00  0.00000000E+00  0.00000000E+00
  0.00000000E+00  0.00000000E+00  0.00000000E+00
  0.00000000E+00  0.00000000E+00  0.00000000E+00
  0.00000000E+00  0.00000000E+00  0.00000000E+00
  0.00000000E+00  0.00000000E+00  0.00000000E+00
  0.00000000E+00  0.00000000E+00  0.00000000E+00
  0.00000000E+00  0.00000000E+00  0.00000000E+00
  0.00000000E+00  0.00000000E+00  0.00000000E+00
  0.00000000E+00  0.00000000E+00  0.00000000E+00
  0.00000000E+00  0.00000000E+00  0.00000000E+00
  0.00000000E+00  0.00000000E+00  0.00000000E+00
  0.00000000E+00  0.00000000E+00  0.00000000E+00
  0.00000000E+00  0.00000000E+00  0.00000000E+00
  0.00000000E+00  0.00000000E+00  0.00000000E+00
  0.00000000E+00  0.00000000E+00  0.00000000E+00
  0.00000000E+00  0.00000000E+00  0.00000000E+00
  0.00000000E+00  0.00000000E+00  0.00000000E+00
  0.00000000E+00  0.00000000E+00  0.00000000E+00
  0.00000000E+00  0.00000000E+00  0.00000000E+00
  0.00000000E+00  0.00000000E+00  0.00000000E+00
  0.00000000E+00  0.00000000E+00  0.00000000E+00
  0.00000000E+00  0.00000000E+00  0.00000000E+00
  0.00000000E+00  0.00000000E+00  0.00000000E+00
  0.00000000E+00  0.00000000E+00  0.00000000E+00
  0.00000000E+00  0.00000000E+00  0.00000000E+00
  0.00000000E+00  0.00000000E+00  0.00000000E+00
  0.00000000E+00  0.00000000E+00  0.00000000E+00
  0.00000000E+00  0.00000000E+00  0.00000000E+00
  0.00000000E+00  0.00000000E+00  0.00000000E+00
  0.00000000E+00  0.00000000E+00  0.00000000E+00
  0.00000000E+00  0.00000000E+00  0.00000000E+00
  0.00000000E+00  0.00000000E+00  0.00000000E+00
  0.00000000E+00  0.00000000E+00  0.00000000E+00
  0.00000000E+00  0.00000000E+00  0.00000000E+00
  0.00000000E+00  0.00000000E+00  0.00000000E+00
  0.00000000E+00  0.00000000E+00  0.00000000E+00
  0.00000000E+00  0.00000000E+00  0.00000000E+00
  0.00000000E+00  0.00000000E+00  0.00000000E+00
  0.00000000E+00  0.00000000E+00  0.00000000E+00
  0.00000000E+00  0.00000000E+00  0.00000000E+00
  0.00000000E+00  0.00000000E+00  0.00000000E+00
  0.00000000E+00  0.00000000E+00  0.00000000E+00
  0.00000000E+00  0.00000000E+00  0.00000000E+00
  0.00000000E+00  0.00000000E+00  0.00000000E+00
  0.00000000E+00  0.00000000E+00  0.00000000E+00
  0.00000000E+00  0.00000000E+00  0.00000000E+00
  0.00000000E+00  0.00000000E+00  0.00000000E+00
  0.00000000E+00  0.00000000E+00  0.00000000E+00
  0.00000000E+00  0.00000000E+00  0.00000000E+00
  0.00000000E+00  0.00000000E+00  0.00000000E+00
  0.00000000E+00  0.00000000E+00  0.00000000E+00
  0.00000000E+00  0.00000000E+00  0.00000000E+00
  0.00000000E+00  0.00000000E+00  0.00000000E+00
  0.00000000E+00  0.00000000E+00  0.00000000E+00
